0 0 0 0
0 1 0 0
0 2 0 0
0 3 0 0
0 4 0 2
0 5 1 2
0 6 2 4
0 7 0 9
0 8 2 10
0 9 2 12
0 10 0 14
0 11 0 4
0 12 1 10
0 13 0 17
0 14 0 15
0 15 1 19
0 16 0 15
0 17 0 20
0 18 0 19
0 19 0 25
0 20 0 24
0 21 0 12
0 22 0 18
0 23 0 23
0 24 0 21
0 25 0 22
0 26 2 26
0 27 0 21
0 28 0 24
0 29 1 25
0 30 0 28
0 31 0 30
